This is Ipopt version 3.13.4, running with linear solver mumps.
NOTE: Other linear solvers might be more efficient (see Ipopt documentation).

Number of nonzeros in equality constraint Jacobian...:     1520
Number of nonzeros in inequality constraint Jacobian.:        0
Number of nonzeros in Lagrangian Hessian.............:        0

Total number of variables............................:       95
                     variables with only lower bounds:        0
                variables with lower and upper bounds:       89
                     variables with only upper bounds:        0
Total number of equality constraints.................:       16
Total number of inequality constraints...............:        0
        inequality constraints with only lower bounds:        0
   inequality constraints with lower and upper bounds:        0
        inequality constraints with only upper bounds:        0

iter    objective    inf_pr   inf_du lg(mu)  ||d||  lg(rg) alpha_du alpha_pr  ls
   0  1.0000000e+00 2.87e-03 0.00e+00   0.0 0.00e+00    -  0.00e+00 0.00e+00   0
   1  1.0000000e+00 2.32e+00 3.68e+03  -1.1 3.58e-01    -  9.77e-01 1.00e+00f  1
   2  1.0000000e+00 7.05e-01 3.66e+03  -0.9 3.04e-01    -  1.00e+00 1.00e+00f  1
   3  1.0000000e+00 5.71e-01 3.60e+03  -0.9 7.43e-01    -  1.00e+00 2.50e-01h  3
   4  1.0000000e+00 8.93e-01 5.49e+02  -0.9 2.24e-01    -  1.00e+00 1.00e+00h  1
   5  1.0000000e+00 1.39e+00 4.72e+02  -0.9 2.28e-01    -  1.00e+00 2.50e-01h  3
   6  1.0000000e+00 5.58e-01 2.00e+02  -0.9 3.33e-01    -  1.00e+00 5.00e-01h  2
   7  1.0000000e+00 4.67e-01 2.50e+02  -0.9 1.52e-01    -  1.00e+00 2.50e-01h  3
   8  1.0000000e+00 7.51e-01 2.26e+03  -0.9 2.05e-01    -  1.00e+00 1.00e+00H  1
   9  1.0000000e+00 6.82e-01 1.57e+03  -0.9 2.57e-01    -  1.00e+00 2.50e-01h  3
iter    objective    inf_pr   inf_du lg(mu)  ||d||  lg(rg) alpha_du alpha_pr  ls
  10  1.0000000e+00 6.53e-01 1.51e+03  -0.9 4.55e-01    -  1.00e+00 6.25e-02h  5
  11  1.0000000e+00 6.34e-01 1.48e+03  -0.9 5.03e-01    -  1.00e+00 3.12e-02h  6
  12  1.0000000e+00 6.29e-01 1.48e+03  -0.9 5.27e-01    -  1.00e+00 7.81e-03h  8
  13  1.0000000e+00 2.68e-01 9.64e+02  -0.9 8.04e-01    -  1.00e+00 2.50e-01h  3
  14  1.0000000e+00 1.79e-01 9.46e+02  -0.9 1.63e-01    -  1.00e+00 1.25e-01h  4
  15  1.0000000e+00 2.11e+00 4.84e+03  -0.9 7.68e-02    -  1.00e+00 1.00e+00H  1
  16  1.0000000e+00 3.52e-01 1.53e+05  -0.9 3.02e-01    -  1.00e+00 1.00e+00h  1
  17  1.0000000e+00 3.93e-01 3.31e+02  -0.9 3.14e-01    -  1.00e+00 1.00e+00h  1
  18  1.0000000e+00 7.90e-02 4.35e+02  -0.9 2.00e-01    -  1.00e+00 1.00e+00h  1
  19  1.0000000e+00 4.03e-02 1.97e+02  -0.9 1.47e-01    -  1.00e+00 1.00e+00h  1
iter    objective    inf_pr   inf_du lg(mu)  ||d||  lg(rg) alpha_du alpha_pr  ls
  20  1.0000000e+00 1.39e-01 9.27e+01  -0.9 1.60e-01    -  1.00e+00 1.00e+00h  1
  21  1.0000000e+00 1.10e-01 2.81e+01  -0.9 9.65e-02    -  1.00e+00 1.00e+00h  1
  22  1.0000000e+00 3.52e-01 9.34e+01  -0.9 2.73e-01    -  1.00e+00 1.00e+00h  1
  23  1.0000000e+00 2.60e-01 1.56e+02  -0.9 1.97e-01    -  1.00e+00 1.00e+00h  1
  24  1.0000000e+00 1.63e-01 1.36e+02  -0.9 1.43e-01    -  1.00e+00 1.00e+00h  1
  25  1.0000000e+00 5.46e-02 1.58e+02  -0.9 3.83e-02    -  1.00e+00 1.00e+00h  1
  26  1.0000000e+00 3.22e-02 1.27e+01  -0.9 3.58e-02    -  1.00e+00 1.00e+00h  1
  27  1.0000000e+00 2.88e-02 6.80e+00  -0.9 3.79e-02    -  1.00e+00 1.00e+00h  1
  28  1.0000000e+00 2.49e-02 2.12e+00  -2.8 3.78e-03    -  9.99e-01 1.00e+00h  1
  29  1.0000000e+00 1.89e-02 4.13e-01  -4.7 1.65e-03    -  1.00e+00 1.00e+00h  1
iter    objective    inf_pr   inf_du lg(mu)  ||d||  lg(rg) alpha_du alpha_pr  ls
  30  1.0000000e+00 1.46e-02 1.87e-01  -6.6 1.11e-03    -  1.00e+00 1.00e+00h  1
  31  1.0000000e+00 1.15e-02 9.17e-02  -8.4 7.84e-04    -  1.00e+00 1.00e+00h  1
  32  1.0000000e+00 9.16e-03 4.87e-02 -10.4 5.73e-04    -  1.00e+00 1.00e+00h  1
  33  1.0000000e+00 7.09e-03 2.62e-02 -11.0 4.29e-04    -  1.00e+00 1.00e+00h  1
  34  1.0000000e+00 5.63e-03 1.55e-02 -11.0 3.27e-04    -  1.00e+00 1.00e+00h  1
  35  1.0000000e+00 4.46e-03 9.15e-03 -11.0 2.52e-04    -  1.00e+00 1.00e+00h  1
  36  1.0000000e+00 3.48e-03 5.48e-03 -11.0 1.97e-04    -  1.00e+00 1.00e+00h  1
  37  1.0000000e+00 2.79e-03 3.44e-03 -11.0 1.55e-04    -  1.00e+00 1.00e+00h  1
  38  1.0000000e+00 2.17e-03 2.09e-03 -11.0 1.22e-04    -  1.00e+00 1.00e+00h  1
  39  1.0000000e+00 1.80e-03 1.39e-03 -11.0 9.69e-05    -  1.00e+00 1.00e+00h  1
iter    objective    inf_pr   inf_du lg(mu)  ||d||  lg(rg) alpha_du alpha_pr  ls
  40  1.0000000e+00 1.47e-03 8.65e-04 -11.0 7.73e-05    -  1.00e+00 1.00e+00h  1
  41  1.0000000e+00 1.16e-03 5.35e-04 -11.0 6.19e-05    -  1.00e+00 1.00e+00h  1
  42  1.0000000e+00 9.43e-04 3.52e-04 -11.0 4.94e-05    -  1.00e+00 1.00e+00h  1
  43  1.0000000e+00 7.46e-04 2.22e-04 -11.0 3.96e-05    -  1.00e+00 1.00e+00h  1
  44  1.0000000e+00 6.17e-04 1.48e-04 -11.0 3.19e-05    -  1.00e+00 1.00e+00h  1
  45  1.0000000e+00 4.91e-04 9.23e-05 -11.0 2.56e-05    -  1.00e+00 1.00e+00h  1
  46  1.0000000e+00 3.96e-04 6.06e-05 -11.0 2.06e-05    -  1.00e+00 1.00e+00h  1
  47  1.0000000e+00 3.21e-04 3.93e-05 -11.0 1.66e-05    -  1.00e+00 1.00e+00h  1
  48  1.0000000e+00 2.56e-04 1.09e-08 -11.0 1.34e-05    -  1.00e+00 1.00e+00h  1
  49  1.0000000e+00 2.09e-04 7.67e-09 -11.0 1.08e-05    -  1.00e+00 1.00e+00h  1
iter    objective    inf_pr   inf_du lg(mu)  ||d||  lg(rg) alpha_du alpha_pr  ls
  50  1.0000000e+00 1.79e-04 1.74e-10 -11.0 3.45e-04    -  1.00e+00 1.00e+00H  1
  51  1.0000000e+00 1.63e-04 1.74e-10 -11.0 3.44e-04    -  1.00e+00 1.00e+00H  1
  52  1.0000000e+00 6.95e-02 3.88e-09 -11.0 1.15e-01    -  1.00e+00 1.00e+00h  1
  53  1.0000000e+00 3.19e-02 5.14e-09 -11.0 4.62e-02    -  1.00e+00 1.00e+00h  1
  54  1.0000000e+00 2.56e-02 3.63e-10 -11.0 2.85e-02    -  1.00e+00 1.00e+00h  1
  55  1.0000000e+00 1.96e-02 6.52e-01 -11.0 2.16e-03    -  1.00e+00 1.00e+00h  1
  56  1.0000000e+00 1.45e-02 2.26e-01 -11.0 1.30e-03    -  1.00e+00 1.00e+00h  1
  57  1.0000000e+00 1.05e-02 9.09e-02 -11.0 8.45e-04    -  1.00e+00 1.00e+00h  1
  58  1.0000000e+00 7.88e-03 4.28e-02 -11.0 5.78e-04    -  1.00e+00 1.00e+00h  1
  59  1.0000000e+00 5.70e-03 2.01e-02 -11.0 4.07e-04    -  1.00e+00 1.00e+00h  1
iter    objective    inf_pr   inf_du lg(mu)  ||d||  lg(rg) alpha_du alpha_pr  ls
  60  1.0000000e+00 4.49e-03 1.11e-02 -11.0 2.93e-04    -  1.00e+00 1.00e+00h  1
  61  1.0000000e+00 3.29e-03 5.50e-03 -11.0 2.14e-04    -  1.00e+00 1.00e+00h  1
  62  1.0000000e+00 2.50e-03 3.11e-03 -11.0 1.59e-04    -  1.00e+00 1.00e+00h  1
  63  1.0000000e+00 1.94e-03 1.75e-03 -11.0 1.19e-04    -  1.00e+00 1.00e+00h  1
  64  1.0000000e+00 1.47e-03 9.59e-04 -11.0 8.93e-05    -  1.00e+00 1.00e+00h  1
  65  1.0000000e+00 1.11e-03 5.42e-04 -11.0 6.73e-05    -  1.00e+00 1.00e+00h  1
  66  1.0000000e+00 8.31e-04 3.08e-04 -11.0 5.08e-05    -  1.00e+00 1.00e+00h  1
  67  1.0000000e+00 6.34e-04 1.81e-04 -11.0 3.86e-05    -  1.00e+00 1.00e+00h  1
  68  1.0000000e+00 4.81e-04 1.04e-04 -11.0 2.93e-05    -  1.00e+00 1.00e+00h  1
  69  1.0000000e+00 3.80e-04 6.20e-05 -11.0 2.23e-05    -  1.00e+00 1.00e+00h  1
iter    objective    inf_pr   inf_du lg(mu)  ||d||  lg(rg) alpha_du alpha_pr  ls
  70  1.0000000e+00 2.78e-04 3.34e-05 -11.0 1.70e-05    -  1.00e+00 1.00e+00h  1
  71  1.0000000e+00 2.15e-04 2.07e-05 -11.0 1.30e-05    -  1.00e+00 1.00e+00h  1
  72  1.0000000e+00 1.64e-04 1.19e-05 -11.0 9.86e-06    -  1.00e+00 1.00e+00h  1
  73  1.0000000e+00 1.24e-04 7.47e-06 -11.0 7.53e-06    -  1.00e+00 1.00e+00h  1
  74  1.0000000e+00 9.65e-05 5.71e-06 -11.0 5.76e-06    -  1.00e+00 1.00e+00h  1
  75  1.0000000e+00 7.33e-05 4.38e-06 -11.0 4.39e-06    -  1.00e+00 1.00e+00h  1
  76  1.0000000e+00 5.50e-05 3.33e-06 -11.0 3.35e-06    -  1.00e+00 1.00e+00h  1
  77  1.0000000e+00 4.27e-05 2.39e-08 -11.0 2.64e-06    -  1.00e+00 1.00e+00h  1
  78  1.0000000e+00 3.34e-05 1.83e-08 -11.0 2.02e-06    -  1.00e+00 1.00e+00h  1
  79  1.0000000e+00 2.64e-05 5.72e-11 -11.0 4.81e-04    -  1.00e+00 1.00e+00H  1
iter    objective    inf_pr   inf_du lg(mu)  ||d||  lg(rg) alpha_du alpha_pr  ls
  80  1.0000000e+00 2.47e-05 5.63e-11 -11.0 4.77e-04    -  1.00e+00 1.00e+00H  1
  81  1.0000000e+00 1.17e-02 1.15e-09 -11.0 6.80e-02    -  1.00e+00 1.00e+00h  1
  82  1.0000000e+00 7.13e-03 1.09e-09 -11.0 4.09e-03    -  1.00e+00 1.00e+00h  1
  83  1.0000000e+00 4.42e-03 2.29e-10 -11.0 1.49e-03    -  1.00e+00 1.00e+00h  1
  84  1.0000000e+00 3.44e-03 1.06e-02 -11.0 2.68e-04    -  1.00e+00 1.00e+00h  1
  85  1.0000000e+00 2.58e-03 5.16e-03 -11.0 1.92e-04    -  1.00e+00 1.00e+00h  1
  86  1.0000000e+00 1.90e-03 2.68e-03 -11.0 1.39e-04    -  1.00e+00 1.00e+00h  1
  87  1.0000000e+00 1.42e-03 1.45e-03 -11.0 1.02e-04    -  1.00e+00 1.00e+00h  1
  88  1.0000000e+00 1.03e-03 7.68e-04 -11.0 7.54e-05    -  1.00e+00 1.00e+00h  1
  89  1.0000000e+00 8.08e-04 4.44e-04 -11.0 5.56e-05    -  1.00e+00 1.00e+00h  1
iter    objective    inf_pr   inf_du lg(mu)  ||d||  lg(rg) alpha_du alpha_pr  ls
  90  1.0000000e+00 5.98e-04 2.30e-04 -11.0 4.12e-05    -  1.00e+00 1.00e+00h  1
  91  1.0000000e+00 4.33e-04 1.25e-04 -11.0 3.06e-05    -  1.00e+00 1.00e+00h  1
  92  1.0000000e+00 3.26e-04 7.13e-05 -11.0 2.27e-05    -  1.00e+00 1.00e+00h  1
  93  1.0000000e+00 2.41e-04 3.90e-05 -11.0 1.69e-05    -  1.00e+00 1.00e+00h  1
  94  1.0000000e+00 1.74e-04 2.14e-05 -11.0 1.26e-05    -  1.00e+00 1.00e+00h  1
  95  1.0000000e+00 1.34e-04 1.10e-06 -11.0 9.74e-06    -  1.00e+00 1.00e+00h  1
  96  1.0000000e+00 1.10e-04 2.84e-10 -11.0 2.96e-04    -  1.00e+00 1.00e+00H  1
  97r 1.0000000e+00 1.10e-04 9.99e+02  -5.1 0.00e+00    -  0.00e+00 4.77e-07R 22
  98r 1.0000000e+00 6.60e-05 4.88e-01  -9.0 1.33e-02    -  1.00e+00 9.90e-04f  1
  99r 1.0000000e+00 6.60e-05 9.99e+02  -5.5 0.00e+00    -  0.00e+00 4.77e-07R 22
iter    objective    inf_pr   inf_du lg(mu)  ||d||  lg(rg) alpha_du alpha_pr  ls
 100r 1.0000000e+00 6.43e-05 1.35e+00  -9.0 2.16e-02    -  1.00e+00 9.90e-04f  1

Number of Iterations....: 100

                                   (scaled)                 (unscaled)
Objective...............:   1.0000000000000000e+00    1.0000000000000000e+00
Dual infeasibility......:   2.1362166079157039e-05    2.1362166079157039e-05
Constraint violation....:   4.9345247442851078e-06    6.4286811380043218e-05
Complementarity.........:   1.0001279040809515e-09    1.0001279040809515e-09
Overall NLP error.......:   2.1362166079157039e-05    6.4286811380043218e-05


Number of objective function evaluations             = 211
Number of objective gradient evaluations             = 101
Number of equality constraint evaluations            = 211
Number of inequality constraint evaluations          = 0
Number of equality constraint Jacobian evaluations   = 103
Number of inequality constraint Jacobian evaluations = 0
Number of Lagrangian Hessian evaluations             = 0
Total CPU secs in IPOPT (w/o function evaluations)   =      2.795
Total CPU secs in NLP function evaluations           =    629.691

EXIT: Maximum Number of Iterations Exceeded.
